141
1000
413
415
278
174
28
250
452
129
227
386
158
360
388
477
16
314
23
97
141
308
330
121
47
31
152
416
91
61
152
96
491
192
250
197
177
183
447
492
201
154
71
144
204
438
445
369
222
141
32
94
96
299
115
146
128
422
26
169
375
5
421
15
20
173
82
4
386
302
472
109
362
172
378
344
41
126
460
195
335
105
449
115
435
46
19
335
105
1
395
209
208
280
418
298
81
149
156
279
332
81
23
210
43
266
149
214
155
315
204
100
104
219
123
254
185
307
248
225
172
4
119
241
159
39
246
360
109
385
158
233
75
321
157
213
384
119
487
286
110
121
9
